db/data/332030700248281874727625192972757612724.z3.out
-------------------
2500.104129853
